teams = 15;
boards = 4;
players = 60;
requests = 16;

singleRequests = 19;
doubleRequests = 1;
minRating = 1771;
maxRating = 2363;

Rating = [2363, 2353, 2353, 2299, 2292, 2283, 2250, 2243, 2231, 2225, 2211, 2195, 2185, 2168, 2161, 2055, 2046, 2041, 2040, 2037, 2028, 2018, 2016, 2011, 2008, 2003, 2000, 2000, 1996, 1996, 1910, 1908, 1907, 1902, 1902, 1896, 1891, 1890, 1888, 1888, 1883, 1878, 1873, 1873, 1871, 1824, 1812, 1812, 1812, 1810, 1802, 1799, 1799, 1798, 1790, 1787, 1786, 1786, 1784, 1771];

Board = [1, 1, 1, 1, 1, 1, 1, 1, 1, 1, 1, 1, 1, 1, 1, 2, 2, 2, 2, 2, 2, 2, 2, 2, 2, 2, 2, 2, 2, 2, 3, 3, 3, 3, 3, 3, 3, 3, 3, 3, 3, 3, 3, 3, 3, 4, 4, 4, 4, 4, 4, 4, 4, 4, 4, 4, 4, 4, 4, 4];

Requestees = {2, 4, 8, 15, 18, 19, 20, 23, 26, 27, 28, 30, 31, 33, 34, 36, 37, 38, 49, 50, 56};

SingleRequested = array2d(1..singleRequests,1..2,[50, 2, 8, 22, 8, 52, 56, 8, 15, 22, 15, 33, 15, 34, 38, 15, 15, 52, 56, 15, 56, 22, 23, 43, 23, 54, 27, 57, 28, 38, 28, 54, 36, 41, 49, 53, 56, 52]);

DoubleRequested = array2d(1..doubleRequests,1..2,[8, 15]);